1 1 0
1 2 3 0
h 4 -5 0
1 -6 7 0
1 8 0
h 9 -10 0
1 11 0
1 -12 13 0
1 11 2 0
h -14 15 0
1 -16 13 0
h 17 18 0
1 19 0
1 -2 -11 0
1 -2 -7 0
1 -20 0
1 21 0
1 22 0
h 5 10 0
1 -11 -2 0
1 6 7 0
1 3 6 0
h -23 24 0
1 -25 -7 0
1 25 26 0
1 -27 0
1 11 28 0
1 29 0
1 2 0
1 30 0
1 -6 -31 0
1 32 0
1 13 26 0
1 -6 0
1 -8 26 0
h 33 4 0
1 -16 0
1 34 0
h -35 36 0
1 -37 0
1 -7 -3 0
1 -3 13 0
1 7 13 0
1 -11 -3 0
1 -6 38 0
1 13 37 0
h 39 40 0
1 -41 0
1 -2 32 0
1 -2 -37 0
h 42 -14 0
1 6 -11 0
1 -43 0
1 44 0
1 -13 45 0
1 -46 0
1 -13 -26 0
h 22 -47 0
1 11 6 0
1 -11 2 0
2079932845 -40 0
1 48 13 0
1 -49 0
1 -3 -11 0
1 -50 0
1 51 -52 0
1 -10 -45 0
1 -2 -3 0
1 7 -26 0
1 -31 -26 0
7288001 53 0
1 -2 -26 0
1 12 -6 0
1 11 -6 0
h -54 -53 0
1 11 3 0
1 -55 0
h -56 37 0
1 57 0
1 -58 0
1 -7 6 0
1 11 -16 0
222340528 -9 0
1 -2 -13 0
1 -51 0
1 -50 -22 0
1 -11 -13 0
1 -59 0
1 -5 6 0
1 -26 -2 0
1 -2 35 0
1 5 26 0
1 2 -13 0
1 52 2 0
1 -13 -11 0
1 7 -3 0
1 -2 -10 0
h 60 61 0
1 2 11 0
1 12 6 0
1 7 -2 0
1 26 52 0
1 -11 6 0
1 -22 13 0
1 6 -26 2 0
1 -23 -19 0
h 62 -15 0
h 63 27 0
1 -50 4 0
1 26 3 0
1 -26 2 0
1 -11 3 -7 0
1 6 21 0
1 3 -26 0
1583053797 -42 0
h -34 64 0
1 -65 0
1 29 26 0
1 66 0
1 2 7 0
1 -11 -32 0
1 25 0
1 6 -46 0
1 -3 -30 0
1 52 0
1 52 3 0
1 5 2 0
1 43 11 0
1 26 -6 0
1 -67 0
1 -23 0
1 66 -3 0
1 -11 3 0
1 -35 0
1 -61 0
1 -25 51 0
h -22 -38 0
1 2 37 0
1 59 3 0
1 -26 13 0
h 22 65 0
1 44 68 0
1 3 -7 0
1 -26 3 0
1 -69 0
h -70 -71 0
1 54 0
1 -29 10 0
1 -22 -6 0
1 -26 32 0
1 -72 0
1 26 -3 0
1 -36 0
1 67 2 0
1 -3 0
1 -3 25 0
1 -13 69 0
1 -26 0
1 31 0
1 -3 6 0
1 3 56 0
1 -11 49 0
1 68 6 0
1 11 -13 0
1 -13 -6 0
1 -50 13 0
1 -28 -26 0
1 -26 6 0
1 -7 -26 0
1 3 26 0
1 6 -26 0
1 12 0
1 -2 73 0
1 -6 26 0
1 -2 12 0
1 -6 -11 0
1 -26 -11 0
h 41 -4 0
h 70 -4 0
1 46 -2 0
1 51 6 0
1 -67 -13 0
1 50 54 0
1 13 3 0
1 -22 5 0
1 7 -51 0
1 6 37 0
1 -4 -50 0
1 46 -7 0
h -62 4 0
52925913 39 0
1 -6 -66 0
1 -59 58 0
1 -2 26 0
1 -7 0
1 13 6 0
1 -13 -7 0
1 3 -8 0
1 66 -11 0
1 -11 -6 0
349442811 -33 0
1 -45 0
1 -11 31 0
1 -43 7 0
1 -7 2 0
1 -17 0
1 7 26 0
1 -2 6 0
1 -7 14 0
1 48 2 0
1 -6 -48 0
1 -11 -7 0
1 3 -11 0
1 -3 -26 0
1 13 46 0
1 28 0
1 -74 0
1 -2 44 0
1 -69 11 0
1 -73 0
1 -5 0
1 10 -45 0
1 -1 35 0
1 48 0
1 -24 0
1 7 11 0
1 -6 -26 0
1 -7 13 0
1 -3 -6 0
1 -3 -2 0
1 10 -14 0
h 71 14 0
1 32 7 0
1 -32 11 0
1 -69 57 0
1 -11 26 0
1 2 26 0
1 -8 11 0
1 6 -44 0
1 -26 7 0
1 7 -23 0
1 5 -6 0
1 -2 11 0
1 -12 -11 0
1 68 0
1 23 12 0
1 16 48 0
1 6 -2 0
h 74 -4 0
1 -11 7 0
1 -20 6 0
1 -11 -26 0
1 22 -5 0
1 22 50 0
1 11 -26 0
1 -57 -21 0
1 -20 -26 0
1 50 -71 0
1 26 13 0
1 47 0
h -4 -10 0
1 -7 -6 0
1 -26 -51 0
h 12 55 0
1 -26 -13 0
1 13 0
1 20 -2 0
1 26 11 0
1 13 -26 0
1 44 26 0
h 72 10 0
h -72 -60 0
1 26 -2 0
1 2 -3 0
1 51 -13 0
1 60 0
1 -68 35 0
1 13 2 0
1 25 7 0
1 -26 -6 0
h -39 5 0
1 -3 7 0
1 6 11 0
1 11 26 0
1 6 2 0
1 -48 3 0
1 -11 -2 -13 0
